c WARNING: for repeatability, setting FPU to use double precision
d VARIABLES            60126        
d CONSTRAINTS          256055       
c ============================[ Problem Statistics ]=============================
c |                                                                             |
c |  Number of variables:         60126                                         |
c |  Number of clauses:          256055                                         |
c |  Parse time:                   0.04 s                                       |
c |                                                                             |
c ============================[ Search Statistics ]==============================
c | Conflicts |          ORIGINAL         |          LEARNT          | Progress |
c |           |    Vars  Clauses Literals |    Limit  Clauses Lit/Cl |          |
c ===============================================================================
c |       100 |   47922   221371   538928 |    81169      100     69 | 20.297 % |
c |       250 |   47922   221371   538928 |    89286      250     66 | 20.297 % |
c |       475 |   47922   221371   538928 |    98214      475     70 | 20.297 % |
c |       812 |   47922   221371   538928 |   108036      812     97 | 20.297 % |
c |      1318 |   47922   221371   538928 |   118840     1318     97 | 20.297 % |
c |      2077 |   47922   221371   538928 |   130724     2077    105 | 20.297 % |
c |      3216 |   47922   221371   538928 |   143796     3216    100 | 20.297 % |
c |      4924 |   47922   221371   538928 |   158176     4924    112 | 20.297 % |
c |      7486 |   47922   221371   538928 |   173993     7486    118 | 20.297 % |
c |     11330 |   47922   221371   538928 |   191393    11330    118 | 20.297 % |
c |     17096 |   47922   221371   538928 |   210532    17096    116 | 20.297 % |
c |     25745 |   47922   221371   538928 |   231585    25745    109 | 20.297 % |
c |     38719 |   47922   221371   538928 |   254744    38719    122 | 20.297 % |
c |     58180 |   47922   221371   538928 |   280218    58180    120 | 20.297 % |
c |     87372 |   47920   221351   538882 |   308240    87350    124 | 20.301 % |
c |    131161 |   47897   221230   538592 |   339064   130735    124 | 20.339 % |
c |    196845 |   47833   220814   537605 |   372971   193877    118 | 20.445 % |
c ===============================================================================
c restarts              : 511
c conflicts             : 219049         (3048 /sec)
c decisions             : 597846         (0.00 % random) (8319 /sec)
c propagations          : 283134471      (3939619 /sec)
c conflict literals     : 26968347       (38.32 % deleted)
d RESTARTS             511
d FAILURES             219049       
d NODES                597846       
d BACKTRACKS           597846       
d PROPAGATIONS         283134471    
d NOGOODSIZE           123.12 
d MEMORY               160.00 
d TIME                 71.8685 

s UNSATISFIABLE
